;test regex sed -nE 's/(^[0-9]{1,3}.[0-9]{1,3}.[0-9]{1,3}.[0-9]{1,3}) .* [htpsw:\/.]{4,8}([0-9a-z.]+)\.com.*$/\1 \2/p' > newfile
(declare-const X String)
(assert (str.in_re X (re.++ (re.++ (str.to_re "s") (re.++ (str.to_re "e") (re.++ (str.to_re "d") (re.++ (str.to_re " ") (re.++ (str.to_re "-") (re.++ (str.to_re "n") (re.++ (str.to_re "E") (re.++ (str.to_re " ") (re.++ (str.to_re "\u{27}") (re.++ (str.to_re "s") (re.++ (str.to_re "/") (re.++ (re.++ (str.to_re "") (re.++ ((_ re.loop 1 3) (re.range "0" "9")) (re.++ (re.diff re.allchar (str.to_re "\n")) (re.++ ((_ re.loop 1 3) (re.range "0" "9")) (re.++ (re.diff re.allchar (str.to_re "\n")) (re.++ ((_ re.loop 1 3) (re.range "0" "9")) (re.++ (re.diff re.allchar (str.to_re "\n")) ((_ re.loop 1 3) (re.range "0" "9"))))))))) (re.++ (str.to_re " ") (re.++ (re.* (re.diff re.allchar (str.to_re "\n"))) (re.++ (str.to_re " ") (re.++ ((_ re.loop 4 8) (re.union (str.to_re "h") (re.union (str.to_re "t") (re.union (str.to_re "p") (re.union (str.to_re "s") (re.union (str.to_re "w") (re.union (str.to_re ":") (re.union (str.to_re "/") (str.to_re "."))))))))) (re.++ (re.+ (re.union (re.range "0" "9") (re.union (re.range "a" "z") (str.to_re ".")))) (re.++ (str.to_re ".") (re.++ (str.to_re "c") (re.++ (str.to_re "o") (re.++ (str.to_re "m") (re.* (re.diff re.allchar (str.to_re "\n")))))))))))))))))))))))) (re.++ (str.to_re "") (re.++ (str.to_re "/") (re.++ (_ re.reference 1) (re.++ (str.to_re " ") (re.++ (_ re.reference 2) (re.++ (str.to_re "/") (re.++ (str.to_re "p") (re.++ (str.to_re "\u{27}") (re.++ (str.to_re " ") (re.++ (str.to_re ">") (re.++ (str.to_re " ") (re.++ (str.to_re "n") (re.++ (str.to_re "e") (re.++ (str.to_re "w") (re.++ (str.to_re "f") (re.++ (str.to_re "i") (re.++ (str.to_re "l") (str.to_re "e")))))))))))))))))))))
; sanitize danger characters:  < > ' " &
(assert (not (str.in_re X (re.++ re.all (re.union (str.to_re "\u{3c}") (str.to_re "\u{3e}") (str.to_re "\u{27}") (str.to_re "\u{22}") (str.to_re "\u{26}")) re.all))))
(assert (< 9 (str.len X)))
(check-sat)
(get-model)